NAME : E-n20-k7
CAPACITY : 710
NODE_COORD_SECTION
1   444   393
2   262   279
3   297   326
4   311   204
5   378   71
6   145   155
7   191   59
8   225   235
9   78   96
10   404   350
11   225   350
12   179   310
13   303   396
14   291   137
15   293   286
16   273   139
17   453   334
18   277   199
19   392   250
20   285   396
DEMAND_SECTION
1   0
2   33
3   67
4   76
5   16
6   59
7   24
8   75
9   15
10   12
11   61
12   71
13   56
14   28
15   7
16   26
17   65
18   79
19   9
20   10
DEPOT_SECTION
    1
    -1
EOF